Route #1: 83 95 65 106 70 18 3 84 78 55
Route #2: 58 64 32 41 14 86 22 75
Route #3: 97 46 101 52 77 16 45 6
Route #4: 30 73 35 12 100 50 72
Route #5: 61 88 44 98 94 102 104 54
Route #6: 68 49 9 37 92 89 59 15
Route #7: 2 105 13 10 85 76 8
Route #8: 63 27 91 25 103 93 53
Route #9: 29 67 47 80 38 28 20 79
Route #10: 23 34
Route #11: 87 19 42 11 17 21 57
Route #12: 36 74 33 4 24 43 31 90 60
Route #13: 56 99 5 71 7 82 51 40
Route #14: 26 48 62 81 66 39 96 69
